\ENCODING=ISO-8859-1
\Problem name: IloCplex

Maximize
 obj: 3 x(0) + 3 x(1) + 3 x(2) + 3 x(3) + 3 x(4) + 3 x(5) + 3 x(6) + 3 x(7)
      + 3 x(8) + 3 x(9) + 3 x(10) + 3 x(11) + 3 x(12) + 3 x(13) + 3 x(14)
      + 3 x(15) + 3 x(16) + 3 x(17) + 3 x(18) + 3 x(19) + 3 x(20) + 3 x(21)
      + 3 x(22) + 3 x(23) + 3 x(24) + 3 x(25) + 3 x(26) + 3 x(27) + 3 x(28)
      + 3 x(29) + 3 x(30) + 3 x(31) + 3 x(32) + 3 x(33) + 3 x(34) + 3 x(35)
      + 3 x(36) + 3 x(37) + 3 x(38) + 3 x(39) + 3 x(40) + 3 x(41) + 3 x(42)
      + 3 x(43) + 3 x(44) + 3 x(45) + 3 x(46) + 3 x(47) + 3 x(48) + 3 x(49)
      + 3 x(50) + 3 x(51) + 3 x(52) + 3 x(53) + 3 x(54) + 3 x(55) + 3 x(56)
      + 3 x(57) + 3 x(58) + 3 x(59) + 3 x(60) + 3 x(61) + 3 x(62) + 3 x(63)
      + 3 x(64) + 3 x(65) + 3 x(66) + 3 x(67) + 3 x(68) + 3 x(69) + 3 x(70)
      + 3 x(71) + 3 x(72) + 3 x(73) + 3 x(74) + 3 x(75) + 3 x(76) + 3 x(77)
      + 3 x(78) + 3 x(79) + 3 x(80) + 3 x(81) + 3 x(82) + 3 x(83)
Subject To
 c1:  4021.22080664012 x(52) + 3 x(67) + 3534.5638402211 x(83)
      <= 8.08833333333333
 c2:  x(2) <= 6.035
 c3:  x(3) <= 6.00833333333333
 c4:  x(8) + x(9) <= 6.035
 c5:  2 x(7) <= 7.035
 c6:  5 x(6) + 1.41478752406158 x(10) <= 10.0916666666667
 c7:  x(5) <= 6.01166666666667
 c8:  2 x(4) + x(64) <= 7.01166666666667
 c9:  x(6) + x(10) + 3 x(28) <= 8
 c10: x(27) <= 6
 c11: x(26) <= 6
 c12: x(7) + 3 x(25) <= 8
 c13: 3 x(24) + x(39) <= 8
 c14: 2 x(23) + x(39) <= 7
 c15: x(22) - 0.663567663694153 x(35) <= 6.08166666666667
 c16: x(18) + x(21) <= 6
 c17: x(20) <= 6
 c18: 3 x(19) + 1050.42503118003 x(31) <= 8
 c19: x(17) <= 6.01833333333333
 c20: x(16) <= 6.07
 c21: x(15) <= 6.07
 c22: x(14) + x(15) <= 6.06666666666667
 c23: x(0) + x(13) <= 6
 c24: 71.3580302959383 x(2) + x(12) <= 6.035
 c25: 3 x(11) <= 8.035
 c26: 5 x(10) <= 10.035
Bounds
 0 <= x(0) <= 1
 0 <= x(1) <= 1
 0 <= x(2) <= 1
 0 <= x(3) <= 1
 0 <= x(4) <= 1
 0 <= x(5) <= 1
 0 <= x(6) <= 1
 0 <= x(7) <= 1
 0 <= x(8) <= 1
 0 <= x(9) <= 1
 0 <= x(10) <= 1
 0 <= x(11) <= 1
 0 <= x(12) <= 1
 0 <= x(13) <= 1
 0 <= x(14) <= 1
 0 <= x(15) <= 1
 0 <= x(16) <= 1
 0 <= x(17) <= 1
 0 <= x(18) <= 1
 0 <= x(19) <= 1
 0 <= x(20) <= 1
 0 <= x(21) <= 1
 0 <= x(22) <= 1
 0 <= x(23) <= 1
 0 <= x(24) <= 1
 0 <= x(25) <= 1
 0 <= x(26) <= 1
 0 <= x(27) <= 1
 0 <= x(28) <= 1
 0 <= x(29) <= 1
 0 <= x(30) <= 1
 0 <= x(31) <= 1
 0 <= x(32) <= 1
 0 <= x(33) <= 1
 0 <= x(34) <= 1
 0 <= x(35) <= 1
 0 <= x(36) <= 1
 0 <= x(37) <= 1
 0 <= x(38) <= 1
 0 <= x(39) <= 1
 0 <= x(40) <= 1
 0 <= x(41) <= 1
 0 <= x(42) <= 1
 0 <= x(43) <= 1
 0 <= x(44) <= 1
 0 <= x(45) <= 1
 0 <= x(46) <= 1
 0 <= x(47) <= 1
 0 <= x(48) <= 1
 0 <= x(49) <= 1
 0 <= x(50) <= 1
 0 <= x(51) <= 1
 0 <= x(52) <= 1
 0 <= x(53) <= 1
 0 <= x(54) <= 1
 0 <= x(55) <= 1
 0 <= x(56) <= 1
 0 <= x(57) <= 1
 0 <= x(58) <= 1
 0 <= x(59) <= 1
 0 <= x(60) <= 1
 0 <= x(61) <= 1
 0 <= x(62) <= 1
 0 <= x(63) <= 1
 0 <= x(64) <= 1
 0 <= x(65) <= 1
 0 <= x(66) <= 1
 0 <= x(67) <= 1
 0 <= x(68) <= 1
 0 <= x(69) <= 1
 0 <= x(70) <= 1
 0 <= x(71) <= 1
 0 <= x(72) <= 1
 0 <= x(73) <= 1
 0 <= x(74) <= 1
 0 <= x(75) <= 1
 0 <= x(76) <= 1
 0 <= x(77) <= 1
 0 <= x(78) <= 1
 0 <= x(79) <= 1
 0 <= x(80) <= 1
 0 <= x(81) <= 1
 0 <= x(82) <= 1
 0 <= x(83) <= 1
Binaries
 x(0)  x(1)  x(2)  x(3)  x(4)  x(5)  x(6)  x(7)  x(8)  x(9)  x(10)  x(11) 
 x(12)  x(13)  x(14)  x(15)  x(16)  x(17)  x(18)  x(19)  x(20)  x(21)  x(22) 
 x(23)  x(24)  x(25)  x(26)  x(27)  x(28)  x(29)  x(30)  x(31)  x(32)  x(33) 
 x(34)  x(35)  x(36)  x(37)  x(38)  x(39)  x(40)  x(41)  x(42)  x(43)  x(44) 
 x(45)  x(46)  x(47)  x(48)  x(49)  x(50)  x(51)  x(52)  x(53)  x(54)  x(55) 
 x(56)  x(57)  x(58)  x(59)  x(60)  x(61)  x(62)  x(63)  x(64)  x(65)  x(66) 
 x(67)  x(68)  x(69)  x(70)  x(71)  x(72)  x(73)  x(74)  x(75)  x(76)  x(77) 
 x(78)  x(79)  x(80)  x(81)  x(82)  x(83) 
End
